CMPL model generation - running

CMPL version: 1.11.0
Authors: Thomas Schleiff, Mike Steglich
Distributed under the GPLv3 

create model instance ...
write model instance ...
CMPL model generation - finished

Solver - running


Welcome to IBM(R) ILOG(R) CPLEX(R) Interactive Optimizer 12.7.1.0
  with Simplex, Mixed Integer & Barrier Optimizers
5725-A06 5725-A29 5724-Y48 5724-Y49 5724-Y54 5724-Y55 5655-Y21
Copyright IBM Corp. 1988, 2017.  All Rights Reserved.

Type 'help' for a list of available commands.
Type 'help' followed by a command name for more
information on commands.

CPLEX> Specified objective sense: MINIMIZE
Selected objective  name:  line[1]
Selected RHS        name:  RHS
Selected bound      name:  BOUND
Problem '/tmp/cmpl.T24785.mps' read.
Read time = 0.07 sec. (10.15 ticks)
CPLEX> CPXPARAM_Read_APIEncoding                        "UTF-8"
Tried aggregator 3 times.
MIP Presolve eliminated 23642 rows and 36860 columns.
MIP Presolve modified 425 coefficients.
Aggregator did 1096 substitutions.
Reduced MIP has 3184 rows, 4499 columns, and 13311 nonzeros.
Reduced MIP has 4289 binaries, 0 generals, 0 SOSs, and 0 indicators.
Presolve time = 0.08 sec. (51.12 ticks)
Found incumbent of value 3430.579796 after 0.16 sec. (94.61 ticks)
Probing time = 0.01 sec. (2.88 ticks)
Tried aggregator 1 time.
MIP Presolve eliminated 0 rows and 6 columns.
Reduced MIP has 3184 rows, 4493 columns, and 13299 nonzeros.
Reduced MIP has 4493 binaries, 0 generals, 0 SOSs, and 0 indicators.
Presolve time = 0.02 sec. (10.97 ticks)
Probing time = 0.01 sec. (2.96 ticks)
Clique table members: 4008.
MIP emphasis: balance optimality and feasibility.
MIP search method: dynamic search.
Parallel mode: none, using 1 thread.
Root relaxation solution time = 0.02 sec. (15.98 ticks)

        Nodes                                         Cuts/
   Node  Left     Objective  IInf  Best Integer    Best Bound    ItCnt     Gap

*     0+    0                         3430.5798       -2.0197           100.06%
*     0     0      integral     0      889.5040      889.5040      820    0.00%
Elapsed time = 0.24 sec. (136.42 ticks, tree = 0.00 MB, solutions = 2)

Root node processing (before b&c):
  Real time             =    0.24 sec. (138.01 ticks)
Sequential b&c:
  Real time             =    0.00 sec. (0.00 ticks)
                          ------------
Total (root+branch&cut) =    0.24 sec. (138.01 ticks)

Solution pool: 2 solutions saved.

MIP - Integer optimal solution:  Objective =  8.8950402300e+02
Solution time =    0.24 sec.  Iterations = 820  Nodes = 0
Deterministic time = 138.13 ticks  (572.49 ticks/sec)

CPLEX> Incumbent solution written to file '/tmp/cmpl.T24785.gsol'.
CPLEX> 
CMPL: Time used for model generation: 1 seconds
CMPL: Time used for solving the model: 1 seconds


Solution written to ASCII file: results/output_generated_conf_0.9/2016-05-02-5/fair-nonlinear.sol

Solver - finished
